solution status: optimal solution found
objective value:                     199879.763959184
d11(0,0)                                            1 	(obj:0)
d11(1,1)                                            1 	(obj:0)
d11(1,2)                                            1 	(obj:0)
d11(2,3)                                            1 	(obj:0)
d11(2,4)                            0.999999999999997 	(obj:0)
d11(2,5)                                            1 	(obj:0)
d11(2,6)                                            1 	(obj:0)
d11(3,7)                                            1 	(obj:0)
d11(3,9)                                            1 	(obj:0)
d11(3,10)                                           1 	(obj:0)
d11(3,11)                                           1 	(obj:0)
d11(3,12)                                           1 	(obj:0)
d11(3,13)                                           1 	(obj:0)
d11(3,14)                                           1 	(obj:0)
d11(4,15)                                           1 	(obj:0)
d11(4,16)                                           1 	(obj:0)
d11(4,17)                                           1 	(obj:0)
d11(4,19)                                           1 	(obj:0)
d11(4,20)                                           1 	(obj:0)
d11(4,21)                                           1 	(obj:0)
d11(4,22)                                           1 	(obj:0)
d11(4,23)                                           1 	(obj:0)
d11(4,24)                           0.999999999999998 	(obj:0)
d11(4,25)                                           1 	(obj:0)
d11(4,26)                                           1 	(obj:0)
d11(4,27)                                           1 	(obj:0)
d11(4,28)                                           1 	(obj:0)
d11(4,29)                                           1 	(obj:0)
d11(4,30)                                           1 	(obj:0)
d21(3,7)                                            1 	(obj:0)
d21(4,15)                                           1 	(obj:0)
d21(4,16)                                           1 	(obj:0)
d21(4,17)                                           1 	(obj:0)
d21(4,19)                                           1 	(obj:0)
d21(4,23)                                           1 	(obj:0)
d21(4,27)                                           1 	(obj:0)
STE(1,1)                             7895.24979888885 	(obj:0)
STE(0,0)                                        14175 	(obj:0)
STE(1,2)                             9553.49969777766 	(obj:0)
STE(2,3)                                    5102.9999 	(obj:0)
STE(2,4)                             6761.24979888884 	(obj:0)
STE(2,5)                             6761.24979888882 	(obj:0)
STE(2,6)                             8419.49969777763 	(obj:0)
STE(3,7)                             2310.75000111118 	(obj:0)
STE(3,8)                                    3968.9999 	(obj:0)
STE(3,9)                             3968.99990000003 	(obj:0)
STE(3,10)                            5627.24979888885 	(obj:0)
STE(3,11)                                   3968.9999 	(obj:0)
STE(3,12)                            5627.24979888885 	(obj:0)
STE(3,13)                            5627.24979888882 	(obj:0)
STE(3,14)                            7285.49969777763 	(obj:0)
STE(4,15)                           -481.499897777665 	(obj:0)
STE(4,16)                            1176.75000111115 	(obj:0)
STE(4,17)                            1176.75000111115 	(obj:0)
STE(4,18)                                   2834.9999 	(obj:0)
STE(4,19)                            1176.75000111118 	(obj:0)
STE(4,20)                            2834.99990000003 	(obj:0)
STE(4,21)                                   2834.9999 	(obj:0)
STE(4,22)                            4493.24979888885 	(obj:0)
STE(4,23)                            1176.75000111115 	(obj:0)
STE(4,24)                                   2834.9999 	(obj:0)
STE(4,25)                                   2834.9999 	(obj:0)
STE(4,26)                            4493.24979888885 	(obj:0)
STE(4,27)                            2834.99989999997 	(obj:0)
STE(4,28)                            4493.24979888882 	(obj:0)
STE(4,29)                            4493.24979888879 	(obj:0)
STE(4,30)                            6151.49969777763 	(obj:0)
y1(3,11)                             1492.42490899994 	(obj:0)
y1(3,13)                             1492.42490899994 	(obj:0)
y1(4,15)                             1492.42490899996 	(obj:0)
y1(4,17)                             1492.42490899996 	(obj:0)
y1(4,19)                             1492.42490899996 	(obj:0)
y1(4,21)                             1492.42490899996 	(obj:0)
y1(4,23)                             1492.42490899996 	(obj:0)
y1(4,25)                             1492.42490899996 	(obj:0)
y1(4,27)                             1492.42490899996 	(obj:0)
y1(4,29)                             1492.42490899996 	(obj:0)
AVE(1)                               3265.91696791192 	(obj:0)
AVE(2)                               3332.74178563731 	(obj:0)
AVE(3)                               3444.11697932125 	(obj:0)
AVE(4)                               3399.56511093778 	(obj:0)
WG(1)                                3265.91696791192 	(obj:10)
WG(2)                                3332.74178563731 	(obj:10)
WG(3)                                3444.11697932125 	(obj:10)
WG(4)                                3399.56511093778 	(obj:10)
BG(1)                                4133.18193106775 	(obj:10)
BG(2)                                863.550713342283 	(obj:10)
BG(3)                                752.175519658315 	(obj:10)
BG(4)                                796.727388041812 	(obj:10)
y1(1,1)                              4631.17518100004 	(obj:0)
y1(1,2)                               3138.7502720001 	(obj:0)
y1(2,3)                              1492.42490899996 	(obj:0)
y1(2,5)                              1492.42490899996 	(obj:0)
y1(3,7)                              1492.42490899994 	(obj:0)
y1(3,9)                              1492.42490899994 	(obj:0)
